100
750
520
520
520
518
517
516
504
502
502
490
487
482
478
473
467
461
457
456
455
455
455
453
450
444
439
435
434
433
432
429
427
419
419
411
409
398
392
391
381
379
367
367
355
354
353
348
347
347
340
339
335
333
331
328
322
317
314
311
307
300
298
297
297
296
296
295
295
293
292
291
287
285
283
281
278
278
274
272
272
271
259
241
229
224
222
214
212
211
205
204
202
191
185
185
185
181
174
173
168
150
